objective value:                                   -3
t_n_20                                              1 	(obj:-1)
t_n_984                                             1 	(obj:-1)
t_n_1159                                            1 	(obj:-1)
